<number of tasks>
50

<cycle time>
1000

<order strength>
0.598


<task times>
1 110
2 88
3 295
4 150
5 76
6 61
7 187
8 382
9 154
10 567
11 293
12 77
13 156
14 269
15 475
16 244
17 494
18 372
19 406
20 498
21 582
22 80
23 64
24 400
25 110
26 531
27 324
28 462
29 238
30 425
31 84
32 159
33 83
34 43
35 99
36 228
37 408
38 222
39 215
40 490
41 285
42 149
43 60
44 314
45 261
46 398
47 156
48 275
49 494
50 642

<precedence relations>
1,17
2,14
3,7
3,9
3,10
4,6
4,8
4,23
5,8
5,11
6,17
7,17
8,14
9,14
10,14
11,12
11,13
11,15
11,16
12,17
13,17
14,17
14,18
14,19
14,20
14,21
14,22
15,23
15,29
15,30
16,23
16,30
17,24
17,25
17,26
17,27
17,28
19,29
19,30
23,33
26,33
27,34
28,31
28,32
29,35
30,32
31,42
32,35
33,34
33,35
34,42
35,36
35,37
35,38
36,42
37,39
37,41
38,40
39,42
40,42
41,43
41,44
41,45
42,46
42,47
42,48
42,49
42,50

<end>
